n_res = 4;
rc = [ 0, 0, 0, 0 ];
n_tasks = 30;
d = [ 2, 5, 4, 6, 9, 8, 1, 9, 5, 10, 9, 6, 7, 1, 5, 1, 4, 10, 4, 3, 8, 7, 2, 7, 7, 8, 2, 4, 8, 1 ];
rr = [| 0, 0, 0, 0, 0, 0, 0, 0, 0, 0, 0, 0, 0, 0, 0, 0, 0, 0, 0, 0, 0, 0, 0, 0, 0, 0, 0, 0, 0, 0
      | 0, 0, 0, 0, 0, 0, 0, 0, 0, 0, 0, 0, 0, 0, 0, 0, 0, 0, 0, 0, 0, 0, 0, 0, 0, 0, 0, 0, 0, 0
      | 0, 0, 0, 0, 0, 0, 0, 0, 0, 0, 0, 0, 0, 0, 0, 0, 0, 0, 0, 0, 0, 0, 0, 0, 0, 0, 0, 0, 0, 0
      | 0, 0, 0, 0, 0, 0, 0, 0, 0, 0, 0, 0, 0, 0, 0, 0, 0, 0, 0, 0, 0, 0, 0, 0, 0, 0, 0, 0, 0, 0 |];
suc = [ { 6, 17, 18 },
       { 4, 5, 9 },
       { 7, 9, 20 },
       { 6, 8, 15 },
       { 10, 12, 14 },
       { 12, 29, 30 },
       { 11, 12, 15 },
       { 10, 18, 24 },
       { 13, 23, 24 },
       { 13, 20, 27 },
       { 16, 19 },
       { 13, 22 },
       { 28 },
       { 15, 16, 20 },
       { 22, 25, 26 },
       { 17 },
       { 21, 23, 24 },
       { 19, 21, 30 },
       { 22, 23 },
       { 21, 26 },
       { 28 },
       { 28 },
       { 25, 27 },
       { 25, 26, 27 },
       { 29 },
       { 30 },
       { 29 },
       {  },
       {  },
       {  } ];
